100
1000
378
377
374
373
369
369
366
353
351
338
337
337
337
334
330
330
323
322
320
319
317
313
306
305
298
297
295
287
283
276
276
268
267
267
265
262
257
257
248
247
240
237
236
233
231
217
201
195
193
187
184
171
170
166
163
161
159
158
158
157
141
139
138
137
126
122
119
116
115
112
106
104
102
101
100
98
98
91
86
84
82
82
78
73
62
61
60
60
58
58
55
52
48
48
41
40
38
36
31
26
